c File: data_files/evolved_graphs/g3643.col
c
c Auto generated graph
c
p edge 100 1761
e 1 4
e 1 7
e 1 30
e 1 42
e 1 47
e 1 54
e 1 56
e 1 65
e 1 66
e 1 72
e 1 95
e 2 4
e 2 5
e 2 7
e 2 8
e 2 17
e 2 21
e 2 23
e 2 28
e 2 35
e 2 38
e 2 41
e 2 53
e 2 58
e 2 59
e 2 73
e 2 74
e 2 81
e 2 84
e 3 4
e 3 6
e 3 18
e 3 28
e 3 44
e 3 47
e 3 64
e 3 65
e 3 91
e 3 100
e 4 5
e 4 6
e 4 9
e 4 13
e 4 15
e 4 16
e 4 23
e 4 26
e 4 30
e 4 36
e 4 42
e 4 50
e 4 53
e 4 57
e 4 71
e 4 94
e 5 10
e 5 19
e 5 41
e 5 47
e 5 51
e 5 61
e 5 80
e 5 95
e 6 16
e 6 18
e 6 26
e 6 35
e 6 36
e 6 44
e 6 47
e 6 48
e 6 54
e 6 60
e 6 66
e 6 68
e 6 69
e 6 80
e 6 94
e 7 9
e 7 11
e 7 19
e 7 33
e 7 43
e 7 44
e 7 81
e 8 10
e 8 11
e 8 13
e 8 15
e 8 16
e 8 17
e 8 21
e 8 24
e 8 29
e 8 30
e 8 32
e 8 34
e 8 35
e 8 39
e 8 40
e 8 42
e 8 43
e 8 46
e 8 48
e 8 49
e 8 51
e 8 52
e 8 54
e 8 58
e 8 60
e 8 62
e 8 64
e 8 65
e 8 66
e 8 67
e 8 68
e 8 71
e 8 72
e 8 74
e 8 75
e 8 77
e 8 79
e 8 83
e 8 87
e 8 88
e 8 89
e 8 93
e 8 94
e 8 99
e 9 11
e 9 13
e 9 15
e 9 17
e 9 23
e 9 24
e 9 25
e 9 26
e 9 28
e 9 33
e 9 35
e 9 37
e 9 38
e 9 41
e 9 42
e 9 45
e 9 49
e 9 50
e 9 51
e 9 52
e 9 53
e 9 54
e 9 57
e 9 61
e 9 63
e 9 65
e 9 68
e 9 69
e 9 71
e 9 72
e 9 74
e 9 83
e 9 86
e 9 87
e 9 88
e 9 90
e 9 92
e 9 95
e 9 96
e 9 97
e 9 99
e 10 11
e 10 13
e 10 15
e 10 17
e 10 19
e 10 20
e 10 25
e 10 27
e 10 29
e 10 31
e 10 32
e 10 33
e 10 37
e 10 41
e 10 42
e 10 43
e 10 47
e 10 49
e 10 52
e 10 55
e 10 57
e 10 58
e 10 64
e 10 65
e 10 66
e 10 67
e 10 69
e 10 71
e 10 73
e 10 75
e 10 79
e 10 81
e 10 83
e 10 85
e 10 88
e 10 89
e 10 91
e 10 92
e 10 95
e 10 98
e 10 100
e 11 16
e 11 20
e 11 23
e 11 26
e 11 27
e 11 29
e 11 32
e 11 34
e 11 35
e 11 36
e 11 41
e 11 47
e 11 48
e 11 49
e 11 51
e 11 53
e 11 54
e 11 56
e 11 59
e 11 60
e 11 63
e 11 64
e 11 65
e 11 66
e 11 68
e 11 69
e 11 70
e 11 79
e 11 80
e 11 82
e 11 84
e 11 85
e 11 89
e 11 92
e 11 94
e 11 95
e 11 97
e 11 98
e 12 13
e 12 19
e 12 20
e 12 22
e 12 23
e 12 24
e 12 27
e 12 29
e 12 30
e 12 34
e 12 38
e 12 41
e 12 42
e 12 45
e 12 46
e 12 47
e 12 53
e 12 54
e 12 58
e 12 61
e 12 62
e 12 65
e 12 67
e 12 69
e 12 70
e 12 74
e 12 75
e 12 76
e 12 82
e 12 83
e 12 84
e 12 86
e 12 88
e 12 91
e 12 93
e 12 96
e 13 15
e 13 16
e 13 19
e 13 22
e 13 25
e 13 27
e 13 28
e 13 32
e 13 37
e 13 38
e 13 40
e 13 42
e 13 44
e 13 49
e 13 50
e 13 57
e 13 60
e 13 61
e 13 63
e 13 64
e 13 65
e 13 69
e 13 73
e 13 83
e 13 86
e 13 92
e 13 94
e 13 96
e 13 97
e 13 98
e 13 99
e 14 17
e 14 19
e 14 22
e 14 25
e 14 28
e 14 29
e 14 31
e 14 34
e 14 37
e 14 39
e 14 41
e 14 42
e 14 44
e 14 45
e 14 47
e 14 50
e 14 51
e 14 52
e 14 53
e 14 54
e 14 57
e 14 59
e 14 60
e 14 65
e 14 66
e 14 69
e 14 73
e 14 77
e 14 78
e 14 85
e 14 90
e 14 91
e 14 93
e 14 94
e 14 95
e 14 97
e 14 98
e 14 99
e 15 16
e 15 22
e 15 23
e 15 26
e 15 27
e 15 29
e 15 31
e 15 39
e 15 43
e 15 45
e 15 48
e 15 49
e 15 50
e 15 58
e 15 63
e 15 64
e 15 66
e 15 67
e 15 73
e 15 76
e 15 77
e 15 81
e 15 83
e 15 86
e 15 87
e 15 96
e 15 97
e 16 19
e 16 24
e 16 25
e 16 27
e 16 32
e 16 37
e 16 42
e 16 43
e 16 44
e 16 51
e 16 52
e 16 55
e 16 56
e 16 61
e 16 64
e 16 69
e 16 72
e 16 73
e 16 74
e 16 75
e 16 80
e 16 81
e 16 85
e 16 86
e 16 87
e 16 88
e 16 89
e 16 93
e 16 94
e 16 95
e 16 97
e 16 98
e 16 100
e 17 18
e 17 21
e 17 23
e 17 25
e 17 26
e 17 28
e 17 29
e 17 31
e 17 33
e 17 35
e 17 37
e 17 38
e 17 40
e 17 42
e 17 46
e 17 48
e 17 51
e 17 52
e 17 56
e 17 57
e 17 60
e 17 62
e 17 65
e 17 66
e 17 67
e 17 71
e 17 73
e 17 76
e 17 78
e 17 79
e 17 80
e 17 81
e 17 85
e 17 88
e 17 89
e 17 96
e 17 97
e 18 19
e 18 23
e 18 25
e 18 34
e 18 35
e 18 37
e 18 38
e 18 48
e 18 53
e 18 55
e 18 57
e 18 62
e 18 63
e 18 64
e 18 73
e 18 74
e 18 75
e 18 80
e 18 84
e 18 85
e 18 88
e 18 93
e 18 94
e 18 98
e 19 25
e 19 28
e 19 32
e 19 33
e 19 43
e 19 48
e 19 49
e 19 56
e 19 57
e 19 59
e 19 61
e 19 67
e 19 78
e 19 81
e 19 85
e 19 89
e 19 92
e 19 94
e 19 96
e 19 98
e 20 21
e 20 22
e 20 34
e 20 36
e 20 38
e 20 41
e 20 42
e 20 43
e 20 44
e 20 48
e 20 51
e 20 58
e 20 59
e 20 61
e 20 64
e 20 66
e 20 67
e 20 71
e 20 75
e 20 77
e 20 78
e 20 79
e 20 80
e 20 81
e 20 83
e 20 84
e 20 85
e 20 88
e 20 92
e 20 94
e 20 97
e 21 22
e 21 23
e 21 24
e 21 27
e 21 29
e 21 34
e 21 36
e 21 37
e 21 39
e 21 40
e 21 46
e 21 47
e 21 50
e 21 51
e 21 53
e 21 56
e 21 61
e 21 62
e 21 63
e 21 65
e 21 66
e 21 70
e 21 74
e 21 81
e 21 82
e 21 85
e 21 89
e 21 90
e 21 94
e 22 23
e 22 24
e 22 25
e 22 27
e 22 28
e 22 38
e 22 41
e 22 42
e 22 46
e 22 49
e 22 52
e 22 56
e 22 60
e 22 61
e 22 63
e 22 64
e 22 65
e 22 66
e 22 68
e 22 70
e 22 71
e 22 76
e 22 78
e 22 86
e 22 91
e 22 92
e 22 97
e 22 98
e 22 99
e 23 24
e 23 29
e 23 31
e 23 36
e 23 40
e 23 44
e 23 48
e 23 49
e 23 50
e 23 52
e 23 54
e 23 62
e 23 64
e 23 65
e 23 76
e 23 78
e 23 80
e 23 82
e 23 84
e 23 85
e 23 87
e 23 90
e 23 91
e 23 95
e 23 100
e 24 28
e 24 29
e 24 31
e 24 33
e 24 34
e 24 39
e 24 44
e 24 47
e 24 49
e 24 51
e 24 53
e 24 54
e 24 55
e 24 57
e 24 60
e 24 61
e 24 62
e 24 63
e 24 64
e 24 71
e 24 74
e 24 75
e 24 81
e 24 82
e 24 85
e 24 88
e 24 89
e 24 90
e 24 93
e 24 94
e 24 97
e 24 98
e 24 100
e 25 29
e 25 34
e 25 42
e 25 46
e 25 47
e 25 48
e 25 49
e 25 50
e 25 55
e 25 58
e 25 60
e 25 61
e 25 66
e 25 67
e 25 68
e 25 69
e 25 73
e 25 77
e 25 78
e 25 80
e 25 86
e 25 91
e 25 93
e 25 97
e 26 30
e 26 33
e 26 34
e 26 35
e 26 36
e 26 37
e 26 39
e 26 40
e 26 41
e 26 44
e 26 45
e 26 46
e 26 49
e 26 52
e 26 53
e 26 54
e 26 56
e 26 60
e 26 61
e 26 63
e 26 68
e 26 69
e 26 73
e 26 86
e 26 87
e 26 94
e 26 96
e 26 97
e 27 28
e 27 30
e 27 31
e 27 32
e 27 33
e 27 34
e 27 35
e 27 38
e 27 40
e 27 42
e 27 43
e 27 45
e 27 49
e 27 52
e 27 53
e 27 54
e 27 55
e 27 58
e 27 59
e 27 60
e 27 71
e 27 73
e 27 74
e 27 75
e 27 77
e 27 79
e 27 84
e 27 87
e 27 88
e 27 89
e 27 91
e 27 93
e 27 94
e 27 95
e 27 96
e 27 100
e 28 29
e 28 30
e 28 38
e 28 39
e 28 41
e 28 48
e 28 51
e 28 52
e 28 53
e 28 58
e 28 64
e 28 74
e 28 80
e 28 82
e 28 87
e 28 90
e 28 92
e 28 94
e 28 98
e 28 99
e 28 100
e 29 30
e 29 35
e 29 37
e 29 39
e 29 40
e 29 41
e 29 48
e 29 49
e 29 53
e 29 55
e 29 56
e 29 58
e 29 59
e 29 60
e 29 61
e 29 63
e 29 65
e 29 66
e 29 69
e 29 77
e 29 78
e 29 79
e 29 88
e 29 92
e 29 97
e 29 98
e 30 32
e 30 34
e 30 36
e 30 42
e 30 45
e 30 46
e 30 49
e 30 52
e 30 57
e 30 60
e 30 62
e 30 64
e 30 65
e 30 77
e 30 78
e 30 95
e 30 97
e 31 32
e 31 34
e 31 38
e 31 40
e 31 42
e 31 45
e 31 47
e 31 51
e 31 53
e 31 55
e 31 62
e 31 65
e 31 67
e 31 68
e 31 77
e 31 82
e 31 85
e 31 86
e 31 87
e 31 88
e 31 93
e 31 95
e 31 96
e 31 98
e 31 99
e 32 34
e 32 37
e 32 38
e 32 39
e 32 40
e 32 41
e 32 43
e 32 48
e 32 50
e 32 51
e 32 52
e 32 55
e 32 57
e 32 59
e 32 60
e 32 62
e 32 65
e 32 69
e 32 71
e 32 72
e 32 81
e 32 87
e 32 92
e 32 95
e 32 96
e 32 97
e 32 100
e 33 41
e 33 42
e 33 46
e 33 49
e 33 51
e 33 55
e 33 62
e 33 66
e 33 71
e 33 76
e 33 77
e 33 86
e 33 91
e 33 92
e 33 96
e 33 97
e 33 100
e 34 35
e 34 37
e 34 42
e 34 43
e 34 48
e 34 50
e 34 52
e 34 53
e 34 57
e 34 64
e 34 66
e 34 68
e 34 69
e 34 71
e 34 73
e 34 75
e 34 78
e 34 79
e 34 84
e 34 85
e 34 87
e 34 90
e 34 93
e 34 97
e 35 38
e 35 41
e 35 44
e 35 45
e 35 46
e 35 50
e 35 51
e 35 55
e 35 56
e 35 57
e 35 63
e 35 66
e 35 68
e 35 69
e 35 77
e 35 83
e 35 84
e 35 86
e 35 90
e 35 92
e 35 93
e 35 94
e 35 95
e 35 99
e 35 100
e 36 39
e 36 43
e 36 45
e 36 46
e 36 48
e 36 49
e 36 52
e 36 54
e 36 55
e 36 56
e 36 57
e 36 58
e 36 61
e 36 67
e 36 72
e 36 78
e 36 84
e 36 87
e 36 90
e 36 95
e 36 96
e 36 97
e 37 38
e 37 40
e 37 42
e 37 43
e 37 50
e 37 55
e 37 57
e 37 59
e 37 60
e 37 63
e 37 64
e 37 66
e 37 67
e 37 69
e 37 72
e 37 73
e 37 75
e 37 78
e 37 79
e 37 80
e 37 82
e 37 84
e 37 88
e 37 89
e 37 91
e 37 95
e 37 96
e 38 45
e 38 46
e 38 47
e 38 49
e 38 50
e 38 53
e 38 56
e 38 59
e 38 63
e 38 66
e 38 67
e 38 75
e 38 76
e 38 77
e 38 80
e 38 81
e 38 82
e 38 83
e 38 88
e 38 89
e 38 93
e 38 95
e 38 97
e 38 98
e 39 44
e 39 45
e 39 51
e 39 54
e 39 55
e 39 56
e 39 59
e 39 61
e 39 62
e 39 65
e 39 66
e 39 67
e 39 70
e 39 71
e 39 72
e 39 73
e 39 75
e 39 80
e 39 82
e 39 86
e 39 87
e 39 88
e 39 90
e 39 94
e 39 100
e 40 41
e 40 42
e 40 46
e 40 48
e 40 49
e 40 53
e 40 54
e 40 55
e 40 59
e 40 61
e 40 62
e 40 63
e 40 66
e 40 77
e 40 79
e 40 80
e 40 83
e 40 84
e 40 87
e 40 88
e 40 89
e 40 90
e 40 92
e 40 94
e 41 42
e 41 43
e 41 48
e 41 50
e 41 56
e 41 57
e 41 60
e 41 63
e 41 69
e 41 70
e 41 72
e 41 73
e 41 74
e 41 75
e 41 82
e 41 84
e 41 85
e 41 86
e 41 88
e 41 91
e 41 93
e 41 94
e 41 95
e 41 96
e 41 97
e 42 43
e 42 44
e 42 45
e 42 48
e 42 53
e 42 54
e 42 59
e 42 64
e 42 66
e 42 68
e 42 71
e 42 73
e 42 76
e 42 82
e 42 84
e 42 86
e 42 87
e 42 88
e 42 92
e 42 96
e 42 99
e 43 46
e 43 54
e 43 56
e 43 58
e 43 68
e 43 70
e 43 71
e 43 76
e 43 81
e 43 82
e 43 83
e 43 87
e 43 88
e 43 92
e 43 93
e 43 94
e 43 97
e 43 98
e 43 100
e 44 47
e 44 48
e 44 53
e 44 56
e 44 59
e 44 60
e 44 65
e 44 66
e 44 70
e 44 77
e 44 78
e 44 91
e 44 92
e 44 94
e 44 95
e 44 98
e 44 100
e 45 47
e 45 48
e 45 50
e 45 53
e 45 56
e 45 57
e 45 63
e 45 64
e 45 66
e 45 69
e 45 71
e 45 75
e 45 77
e 45 79
e 45 82
e 45 85
e 45 86
e 45 87
e 45 88
e 45 90
e 45 91
e 45 92
e 45 97
e 45 98
e 45 100
e 46 49
e 46 50
e 46 51
e 46 59
e 46 60
e 46 63
e 46 64
e 46 65
e 46 68
e 46 69
e 46 70
e 46 72
e 46 73
e 46 74
e 46 76
e 46 79
e 46 82
e 46 83
e 46 85
e 46 92
e 46 98
e 46 99
e 46 100
e 47 49
e 47 51
e 47 53
e 47 54
e 47 56
e 47 57
e 47 58
e 47 62
e 47 64
e 47 65
e 47 67
e 47 71
e 47 75
e 47 79
e 47 82
e 47 84
e 47 86
e 47 88
e 47 92
e 47 93
e 47 97
e 48 56
e 48 63
e 48 64
e 48 66
e 48 68
e 48 69
e 48 70
e 48 77
e 48 78
e 48 80
e 48 83
e 48 89
e 48 90
e 48 92
e 48 93
e 48 96
e 48 97
e 48 98
e 48 99
e 49 54
e 49 60
e 49 62
e 49 64
e 49 66
e 49 67
e 49 70
e 49 73
e 49 75
e 49 76
e 49 77
e 49 78
e 49 79
e 49 81
e 49 82
e 49 89
e 49 92
e 49 97
e 49 100
e 50 54
e 50 56
e 50 57
e 50 58
e 50 59
e 50 61
e 50 62
e 50 64
e 50 65
e 50 68
e 50 70
e 50 72
e 50 73
e 50 74
e 50 75
e 50 78
e 50 79
e 50 80
e 50 81
e 50 84
e 50 90
e 50 92
e 50 93
e 50 94
e 50 95
e 50 97
e 51 54
e 51 55
e 51 57
e 51 58
e 51 59
e 51 68
e 51 74
e 51 77
e 51 83
e 51 85
e 51 86
e 51 89
e 51 90
e 51 95
e 51 97
e 52 55
e 52 56
e 52 58
e 52 60
e 52 62
e 52 65
e 52 66
e 52 68
e 52 71
e 52 72
e 52 73
e 52 74
e 52 75
e 52 80
e 52 81
e 52 88
e 52 89
e 52 95
e 53 55
e 53 56
e 53 59
e 53 62
e 53 63
e 53 66
e 53 67
e 53 68
e 53 69
e 53 70
e 53 71
e 53 74
e 53 75
e 53 76
e 53 85
e 53 86
e 53 88
e 53 90
e 53 94
e 54 57
e 54 63
e 54 66
e 54 67
e 54 68
e 54 73
e 54 74
e 54 77
e 54 79
e 54 85
e 54 88
e 54 91
e 54 94
e 54 95
e 54 96
e 54 97
e 54 98
e 54 100
e 55 56
e 55 59
e 55 60
e 55 63
e 55 67
e 55 70
e 55 71
e 55 74
e 55 75
e 55 76
e 55 77
e 55 80
e 55 88
e 55 89
e 55 90
e 55 91
e 55 96
e 56 57
e 56 60
e 56 62
e 56 63
e 56 65
e 56 67
e 56 68
e 56 69
e 56 73
e 56 74
e 56 75
e 56 77
e 56 78
e 56 79
e 56 82
e 56 83
e 56 86
e 56 87
e 56 88
e 56 89
e 56 90
e 56 92
e 56 94
e 56 96
e 56 97
e 56 98
e 57 59
e 57 64
e 57 65
e 57 67
e 57 69
e 57 71
e 57 74
e 57 75
e 57 77
e 57 79
e 57 84
e 57 85
e 57 88
e 57 89
e 57 94
e 57 97
e 57 98
e 58 63
e 58 64
e 58 65
e 58 66
e 58 67
e 58 68
e 58 72
e 58 74
e 58 75
e 58 76
e 58 78
e 58 83
e 58 85
e 58 88
e 58 89
e 58 90
e 58 91
e 58 93
e 58 94
e 58 99
e 58 100
e 59 61
e 59 62
e 59 63
e 59 66
e 59 69
e 59 71
e 59 75
e 59 79
e 59 82
e 59 86
e 59 88
e 59 91
e 59 94
e 59 95
e 59 96
e 60 63
e 60 64
e 60 65
e 60 69
e 60 72
e 60 74
e 60 80
e 60 85
e 60 91
e 60 92
e 60 93
e 60 97
e 61 64
e 61 67
e 61 68
e 61 70
e 61 73
e 61 75
e 61 76
e 61 77
e 61 79
e 61 83
e 61 86
e 61 90
e 61 91
e 62 64
e 62 65
e 62 66
e 62 67
e 62 68
e 62 71
e 62 74
e 62 76
e 62 79
e 62 84
e 62 92
e 62 95
e 62 98
e 63 64
e 63 66
e 63 71
e 63 74
e 63 80
e 63 81
e 63 82
e 63 84
e 63 87
e 63 91
e 63 92
e 63 95
e 63 96
e 63 97
e 63 99
e 64 67
e 64 70
e 64 72
e 64 73
e 64 74
e 64 81
e 64 82
e 64 83
e 64 85
e 64 88
e 64 89
e 64 90
e 64 92
e 64 97
e 65 67
e 65 68
e 65 69
e 65 70
e 65 72
e 65 73
e 65 78
e 65 79
e 65 80
e 65 81
e 65 83
e 65 85
e 65 86
e 65 87
e 65 89
e 65 90
e 65 91
e 65 92
e 65 93
e 65 94
e 65 95
e 65 96
e 65 97
e 65 100
e 66 67
e 66 71
e 66 72
e 66 73
e 66 74
e 66 76
e 66 78
e 66 79
e 66 80
e 66 84
e 66 86
e 66 88
e 66 89
e 66 90
e 66 93
e 66 94
e 66 95
e 66 96
e 66 98
e 66 99
e 67 68
e 67 70
e 67 75
e 67 76
e 67 77
e 67 84
e 67 85
e 67 89
e 67 92
e 67 93
e 67 94
e 67 95
e 67 96
e 67 99
e 67 100
e 68 69
e 68 74
e 68 80
e 68 82
e 68 83
e 68 85
e 68 86
e 68 89
e 68 90
e 68 91
e 68 93
e 68 94
e 68 96
e 68 98
e 68 99
e 69 71
e 69 74
e 69 75
e 69 76
e 69 77
e 69 78
e 69 79
e 69 80
e 69 86
e 69 88
e 69 89
e 69 90
e 69 95
e 69 96
e 69 98
e 69 99
e 70 76
e 70 85
e 70 86
e 70 87
e 70 88
e 70 89
e 70 91
e 70 92
e 70 93
e 70 95
e 70 96
e 70 99
e 71 74
e 71 79
e 71 81
e 71 86
e 71 95
e 71 97
e 71 100
e 72 73
e 72 74
e 72 76
e 72 79
e 72 84
e 72 87
e 72 89
e 72 91
e 72 92
e 72 93
e 72 96
e 72 97
e 72 98
e 72 99
e 72 100
e 73 74
e 73 75
e 73 79
e 73 82
e 73 85
e 73 86
e 73 90
e 73 91
e 73 96
e 73 97
e 73 100
e 74 75
e 74 77
e 74 84
e 74 85
e 74 87
e 74 88
e 74 89
e 74 95
e 74 97
e 74 98
e 74 99
e 74 100
e 75 76
e 75 83
e 75 84
e 75 87
e 75 89
e 75 92
e 75 93
e 75 96
e 75 97
e 75 99
e 76 79
e 76 84
e 76 86
e 76 90
e 76 91
e 76 93
e 76 96
e 76 97
e 76 99
e 77 79
e 77 81
e 77 83
e 77 85
e 77 87
e 77 90
e 77 91
e 77 92
e 77 94
e 77 96
e 77 97
e 77 98
e 77 100
e 78 81
e 78 89
e 78 92
e 78 93
e 78 94
e 78 95
e 78 96
e 78 97
e 78 98
e 78 99
e 79 83
e 79 85
e 79 91
e 79 92
e 79 93
e 79 94
e 79 98
e 79 99
e 79 100
e 80 84
e 80 86
e 80 87
e 80 88
e 80 89
e 80 92
e 80 97
e 80 98
e 80 99
e 81 87
e 81 89
e 81 92
e 81 93
e 81 94
e 81 98
e 81 99
e 81 100
e 82 84
e 82 90
e 82 91
e 82 93
e 82 94
e 82 98
e 82 99
e 82 100
e 83 89
e 83 90
e 83 93
e 83 96
e 83 98
e 83 99
e 84 86
e 84 88
e 84 89
e 84 90
e 84 94
e 84 95
e 84 98
e 84 99
e 84 100
e 85 86
e 85 87
e 85 88
e 85 96
e 85 99
e 86 88
e 86 93
e 86 96
e 86 97
e 86 98
e 87 89
e 87 92
e 87 100
e 88 89
e 88 91
e 89 90
e 89 91
e 89 96
e 90 91
e 90 92
e 90 96
e 90 98
e 90 99
e 90 100
e 91 92
e 91 93
e 91 98
e 91 100
e 92 94
e 92 95
e 92 98
e 92 99
e 93 95
e 93 99
e 94 97
e 94 100
e 95 96
e 95 97
e 96 98
e 96 100
e 97 100
